nN = 5;
nR = 25;
nH = 1;

a = [[15, 19, 20, 22, 21, 24, 20, 22, 18, 24, 20, 22, 18, 24, 21, 16, 21, 17, 17, 18, 25, 21, 22, 25, 22], [21, 24, 24, 17, 24, 20, 19, 23, 16, 23, 23, 22, 17, 16, 23, 16, 24, 18, 15, 17, 24, 22, 24, 15, 16], [18, 25, 16, 22, 18, 23, 21, 21, 19, 25, 15, 19, 23, 19, 19, 15, 22, 17, 16, 21, 18, 22, 17, 25, 18], [22, 22, 15, 19, 18, 19, 19, 22, 17, 17, 24, 20, 21, 21, 24, 19, 25, 19, 15, 20, 22, 18, 20, 17, 15], [23, 18, 21, 23, 15, 19, 19, 19, 20, 19, 17, 20, 20, 21, 23, 25, 24, 23, 23, 19, 19, 20, 17, 15, 24]];
c = [[[0, 0, 0, 0, 0, 0, 0, 0, 0, 0, 0, 0, 0, 0, 0, 0, 0, 0, 0, 0, 0, 0, 0, 0, 0], [44, 44, 34, 41, 43, 48, 48, 39, 33, 49, 31, 36, 31, 30, 35, 39, 46, 31, 30, 39, 33, 32, 44, 31, 47], [34, 35, 47, 35, 37, 32, 40, 34, 42, 46, 45, 49, 41, 30, 38, 38, 43, 39, 40, 49, 34, 39, 42, 32, 31], [32, 37, 41, 33, 39, 39, 32, 31, 39, 37, 31, 46, 30, 47, 32, 31, 37, 41, 41, 50, 41, 35, 44, 50, 35], [38, 49, 46, 34, 33, 34, 33, 37, 48, 43, 33, 42, 31, 50, 41, 50, 43, 50, 31, 36, 50, 49, 37, 33, 50]], [[0, 0, 0, 0, 0, 0, 0, 0, 0, 0, 0, 0, 0, 0, 0, 0, 0, 0, 0, 0, 0, 0, 0, 0, 0], [0, 0, 0, 0, 0, 0, 0, 0, 0, 0, 0, 0, 0, 0, 0, 0, 0, 0, 0, 0, 0, 0, 0, 0, 0], [30, 40, 50, 43, 46, 35, 38, 43, 48, 40, 37, 36, 47, 34, 47, 49, 32, 45, 46, 35, 44, 37, 47, 35, 44], [37, 33, 40, 39, 40, 50, 43, 35, 47, 42, 45, 42, 36, 36, 41, 41, 38, 31, 43, 40, 50, 46, 40, 43, 34], [48, 36, 32, 42, 30, 30, 38, 30, 31, 43, 33, 49, 46, 46, 34, 42, 41, 40, 43, 37, 33, 47, 35, 45, 43]], [[0, 0, 0, 0, 0, 0, 0, 0, 0, 0, 0, 0, 0, 0, 0, 0, 0, 0, 0, 0, 0, 0, 0, 0, 0], [0, 0, 0, 0, 0, 0, 0, 0, 0, 0, 0, 0, 0, 0, 0, 0, 0, 0, 0, 0, 0, 0, 0, 0, 0], [0, 0, 0, 0, 0, 0, 0, 0, 0, 0, 0, 0, 0, 0, 0, 0, 0, 0, 0, 0, 0, 0, 0, 0, 0], [30, 46, 32, 48, 44, 50, 38, 44, 45, 50, 39, 44, 47, 41, 40, 33, 43, 38, 41, 30, 47, 36, 46, 42, 49], [39, 42, 43, 37, 47, 32, 34, 44, 47, 32, 37, 45, 42, 42, 35, 42, 32, 40, 45, 41, 33, 30, 41, 33, 38]], [[0, 0, 0, 0, 0, 0, 0, 0, 0, 0, 0, 0, 0, 0, 0, 0, 0, 0, 0, 0, 0, 0, 0, 0, 0], [0, 0, 0, 0, 0, 0, 0, 0, 0, 0, 0, 0, 0, 0, 0, 0, 0, 0, 0, 0, 0, 0, 0, 0, 0], [0, 0, 0, 0, 0, 0, 0, 0, 0, 0, 0, 0, 0, 0, 0, 0, 0, 0, 0, 0, 0, 0, 0, 0, 0], [0, 0, 0, 0, 0, 0, 0, 0, 0, 0, 0, 0, 0, 0, 0, 0, 0, 0, 0, 0, 0, 0, 0, 0, 0], [38, 40, 35, 38, 32, 31, 48, 30, 38, 45, 39, 33, 32, 32, 39, 47, 38, 46, 32, 46, 50, 39, 48, 43, 39]], [[0, 0, 0, 0, 0, 0, 0, 0, 0, 0, 0, 0, 0, 0, 0, 0, 0, 0, 0, 0, 0, 0, 0, 0, 0], [0, 0, 0, 0, 0, 0, 0, 0, 0, 0, 0, 0, 0, 0, 0, 0, 0, 0, 0, 0, 0, 0, 0, 0, 0], [0, 0, 0, 0, 0, 0, 0, 0, 0, 0, 0, 0, 0, 0, 0, 0, 0, 0, 0, 0, 0, 0, 0, 0, 0], [0, 0, 0, 0, 0, 0, 0, 0, 0, 0, 0, 0, 0, 0, 0, 0, 0, 0, 0, 0, 0, 0, 0, 0, 0], [0, 0, 0, 0, 0, 0, 0, 0, 0, 0, 0, 0, 0, 0, 0, 0, 0, 0, 0, 0, 0, 0, 0, 0, 0]]];

q = [[[19], [14], [6], [10], [6], [20], [16], [12], [17], [23], [7], [23], [20], [15], [7], [17], [7], [25], [10], [17], [10], [6], [10], [23], [12]], [[18], [8], [17], [19], [19], [24], [20], [10], [11], [14], [17], [19], [23], [24], [7], [25], [24], [24], [8], [17], [9], [22], [8], [11], [11]], [[14], [15], [18], [22], [9], [8], [10], [21], [17], [18], [9], [19], [6], [25], [17], [6], [12], [6], [12], [15], [21], [12], [14], [19], [7]], [[6], [5], [5], [23], [12], [6], [11], [16], [13], [20], [12], [9], [24], [16], [22], [12], [8], [24], [21], [13], [8], [18], [13], [17], [21]], [[18], [25], [20], [18], [20], [8], [18], [24], [11], [9], [14], [23], [18], [19], [11], [5], [12], [11], [17], [16], [22], [17], [6], [16], [24]]];
Q = [[56], [65], [56], [56], [64]];
